LOC = { BASE, A, B, C, D, E, F, G, H };
base = BASE;
n = 4;
wild = [ 0, 10, 7, 3, 2, 8, 6, 4, 9 ];
cost = [ 0,  0,  0,  0,  -1,  0,  0,  0,  0 ];
d =   [| 0,  4,  8, 12, 16, 18, 19, 14,  5 
       | 4,  0,  5,  9, 12, 17, 20,  7,  9
       | 8,  5,  0,  5,  8, 12, 14, 15, 12
       |12,  9,  5,  0,  3,  6,  8, 10, 11  
       |16, 12,  8,  3,  0,  9,  2,  6,  8
       |18, 17, 12,  6,  9,  0,  5,  8, 15
       |19, 20, 14,  8,  2,  5,  0,  8, 12
       |14,  7, 15, 10,  6,  8,  8,  0,  9 
       | 5,  9, 12, 11,  8, 15, 12,  9,  0 |];
move = 3;
link = 30;
mind = 3;
opcost = 0;
budget = 0;       
